% seed = 8972196

mint = 31;
% maxt = 104;

nActs = 22;
dur = [0,5,6,4,10,4,9,6,7,10,2,3,6,3,5,4,4,2,1,7,6,0];

nSkills = 4;
sreq = [| 0,0,0,0,
	| 0,0,2,3,
	| 1,0,2,0,
	| 2,1,0,0,
	| 1,2,0,0,
	| 3,0,0,1,
	| 0,2,1,0,
	| 0,1,0,2,
	| 0,1,2,0,
	| 0,2,0,3,
	| 2,0,0,2,
	| 2,0,0,2,
	| 0,0,3,3,
	| 0,3,1,0,
	| 0,1,3,0,
	| 0,3,0,1,
	| 0,0,3,3,
	| 2,1,0,0,
	| 0,3,0,2,
	| 1,2,0,0,
	| 3,0,0,2,
	| 0,0,0,0, |];

nResources = 13;
mastery = [| true,true,false,false,
	| false,true,true,true,
	| true,true,false,false,
	| false,true,true,false,
	| false,true,true,true,
	| false,false,true,false,
	| true,false,true,false,
	| true,false,false,false,
	| false,false,false,true,
	| false,true,false,false,
	| false,true,false,true,
	| true,false,false,false,
	| true,false,true,true, |];

nPrecs = 31;
pred = [1,1,1,2,2,2,3,3,3,4,4,5,6,7,7,8,9,10,10,11,12,13,14,15,16,17,18,18,19,20,21];
succ = [2,3,4,6,7,8,9,5,14,17,15,16,19,11,13,10,11,18,12,16,19,16,21,18,20,18,20,21,22,22,22];

nUnrels = 130;
unpred = [2,2,2,2,2,2,2,3,3,3,3,3,3,3,3,3,3,3,4,4,4,4,4,4,4,4,4,4,4,4,5,5,5,5,5,5,5,5,5,5,5,5,5,5,6,6,6,6,6,6,6,6,6,6,6,6,6,6,7,7,7,7,7,7,7,7,7,7,8,8,8,8,8,8,8,9,9,9,9,9,9,9,9,9,10,10,10,10,10,10,11,11,11,11,11,11,11,11,12,12,12,12,12,12,12,12,13,13,13,13,13,13,14,14,14,14,14,14,15,15,15,16,16,16,16,17,18,19,19,20];
unsucc = [3,4,5,9,14,15,17,4,6,7,8,10,12,13,15,17,18,19,5,6,7,8,9,10,11,12,13,14,16,19,6,7,8,9,10,11,12,13,14,15,17,18,19,21,7,8,9,10,11,12,13,14,15,16,17,18,20,21,8,9,10,12,14,15,17,18,19,21,9,11,13,14,15,16,17,10,12,13,14,15,17,18,19,21,11,13,14,15,16,17,12,13,14,15,17,18,19,21,13,14,15,16,17,18,20,21,14,15,17,18,19,21,15,16,17,18,19,20,16,17,19,17,18,19,21,19,19,20,21,21];

USEFUL_RES = [{},
	{2,4,5,6,7,9,11,13},
	{1,2,3,4,5,6,7,8,12,13},
	{1,2,3,4,5,7,8,10,11,12,13},
	{1,2,3,4,5,7,8,10,11,12,13},
	{1,2,3,5,7,8,9,11,12,13},
	{1,2,3,4,5,6,7,10,11,13},
	{1,2,3,4,5,9,10,11,13},
	{1,2,3,4,5,6,7,10,11,13},
	{1,2,3,4,5,9,10,11,13},
	{1,2,3,5,7,8,9,11,12,13},
	{1,2,3,5,7,8,9,11,12,13},
	{2,4,5,6,7,9,11,13},
	{1,2,3,4,5,6,7,10,11,13},
	{1,2,3,4,5,6,7,10,11,13},
	{1,2,3,4,5,9,10,11,13},
	{2,4,5,6,7,9,11,13},
	{1,2,3,4,5,7,8,10,11,12,13},
	{1,2,3,4,5,9,10,11,13},
	{1,2,3,4,5,7,8,10,11,12,13},
	{1,2,3,5,7,8,9,11,12,13},
	{}];

POTENTIAL_ACT = [{3,4,5,6,7,8,9,10,11,12,14,15,16,18,19,20,21},
	{2,3,4,5,6,7,8,9,10,11,12,13,14,15,16,17,18,19,20,21},
	{3,4,5,6,7,8,9,10,11,12,14,15,16,18,19,20,21},
	{2,3,4,5,7,8,9,10,13,14,15,16,17,18,19,20},
	{2,3,4,5,6,7,8,9,10,11,12,13,14,15,16,17,18,19,20,21},
	{2,3,7,9,13,14,15,17},
	{2,3,4,5,6,7,9,11,12,13,14,15,17,18,20,21},
	{3,4,5,6,11,12,18,20,21},
	{2,6,8,10,11,12,13,16,17,19,21},
	{4,5,7,8,9,10,14,15,16,18,19,20},
	{2,4,5,6,7,8,9,10,11,12,13,14,15,16,17,18,19,20,21},
	{3,4,5,6,11,12,18,20,21},
	{2,3,4,5,6,7,8,9,10,11,12,13,14,15,16,17,18,19,20,21}];
